(set-info :Origin "This instance was generated by: BanditFuzz-- an RL fuzzer for SMT solvers" )
(set-info :Author "Joe Scott, Fed Mora, Vijay Ganesh" )
(set-info :Contact "Joe Scott, joseph.scott@uwaterloo.ca")
(set-logic QF_BV)
(declare-const bool_0 Bool)
(declare-const bool_1 Bool)
(declare-const bool_2 Bool)
(declare-const bool_3 Bool)
(declare-const bool_4 Bool)
(declare-const bv_0 (_ BitVec 32))
(declare-const bv_1 (_ BitVec 32))
(declare-const bv_2 (_ BitVec 32))
(declare-const bv_3 (_ BitVec 32))
(declare-const bv_4 (_ BitVec 32))
(assert (bvugt (bvshl (bvashr bv_0 #xba751aef ) (bvnor bv_3 #x327d275a )) (bvadd (bvxnor bv_1 bv_3) (bvxor bv_0 #x2a846d18 ))))
(assert (and (and (bvult #x744e5ad5  bv_1) (bvule #x24d01b18  bv_0)) (xor (not true) (bvuge #xdab2f701  bv_3))))
(assert (bvslt (bvsrem (bvnand #x7cec8ad3  bv_0) (bvlshr bv_0 bv_0)) (bvnand (bvshl #x100c9c86  bv_4) (bvxnor bv_2 #x8658e65f ))))
(assert (bvugt (bvxnor (bvsub bv_0 bv_1) (bvudiv bv_4 bv_4)) (bvsdiv (bvor bv_0 #xa6183ab2 ) (bvashr #x58988b63  bv_3))))
(assert (bvugt (bvand (bvsdiv bv_1 #xa430db37 ) (bvand bv_0 #xb1af4a32 )) (bvudiv (bvsub #xafe99435  #x29a3bed7 ) (bvudiv #x2b52a7b3  bv_3))))
(check-sat)
(exit)
